100
128
4
45
5
6
18
3
8
7
4
11
5
7
44
4
20
3
8
27
11
24
26
28
20
55
8
23
12
17
13
15
3
22
9
5
28
38
29
29
8
23
4
2
23
24
9
4
20
33
50
55
3
13
6
43
7
39
56
7
53
43
15
7
52
53
5
2
18
59
50
63
46
18
35
12
42
33
25
31
50
26
1
7
51
64
30
14
40
52
49
36
44
2
51
30
11
50
5
34
16
2